(set-info :smt-lib-version 2.6)
(set-logic LRA)
(set-info :source |
   Monniaux, David; Quantifier Elimination by Lazy Model Enumeration, CAV 2010
|)
(set-info :category "random")
; ./Mjollnir_examples/B1/formula_114.m
(set-info :status unsat)
(assert
 (forall ((|v9:0| Real) )(exists ((|v8:1| Real) )(forall ((|v7:2| Real) )(exists ((|v6:3| Real) )(forall ((|v5:4| Real) )(exists ((|v4:5| Real) )(forall ((|v3:6| Real) )(exists ((|v2:7| Real) )(forall ((|v1:8| Real) )(exists ((|v0:9| Real) )(let (($x173 (<= (+ (+ (* 2 |v3:6|) |v7:2|) (* (- 15) |v6:3|)) (- 16))))
(let ((?x52 (- 2)))
(let (($x162 (<= (+ (+ (* 6 |v4:5|) |v9:0|) (* (- 9) |v7:2|)) ?x52)))
(let ((?x153 (+ (+ (* 10 |v5:4|) (* (- 13) |v0:9|)) (* (- 5) |v5:4|))))
(let (($x147 (<= (+ (+ (* (- 16) |v2:7|) |v2:7|) (* 16 |v6:3|)) 2)))
(let ((?x135 (+ (+ (* (- 8) |v2:7|) (* (- 19) |v3:6|)) (* (- 12) |v1:8|))))
(let (($x164 (or (and (<= ?x135 (- 12)) $x147) (and (<= ?x153 7) $x162))))
(let ((?x123 (+ (+ (* ?x52 |v0:9|) (* 4 |v1:8|)) (* 10 |v9:0|))))
(let ((?x114 (+ (+ (* 12 |v1:8|) (* 13 |v5:4|)) (* 3 |v8:1|))))
(let ((?x104 (+ (+ (* (- 13) |v7:2|) (* 19 |v9:0|)) (* 20 |v6:3|))))
(let ((?x90 (+ (+ (* (- 5) |v0:9|) (* 10 |v5:4|)) (* (- 18) |v6:3|))))
(let (($x127 (or (or (<= ?x90 (- 6)) (<= ?x104 (- 4))) (or (<= ?x114 (- 17)) (<= ?x123 17)))))
(let ((?x76 (+ (+ (* (- 8) |v2:7|) (* (- 1) |v7:2|)) (* 15 |v3:6|))))
(let ((?x63 (+ (+ (* 15 |v6:3|) (* (- 17) |v5:4|)) (* 11 |v8:1|))))
(let ((?x51 (+ (+ (* 11 |v9:0|) (* (- 9) |v8:1|)) (* 14 |v1:8|))))
(let ((?x37 15))
(let ((?x36 (+ (+ (* 13 |v6:3|) (* (- 3) |v0:9|)) (* 3 |v3:6|))))
(let (($x79 (and (and (<= ?x36 ?x37) (<= ?x51 ?x52)) (or (<= ?x63 (- 18)) (<= ?x76 14)))))
(let ((?x21 (+ (+ (* (- 14) |v1:8|) (* 8 |v4:5|)) (* 18 |v8:1|))))
(or (and (and (<= ?x21 (- 3)) $x79) (or $x127 $x164)) $x173)))))))))))))))))))))
)
)
)
)
)
)
)
)
)
)
(check-sat)
(exit)

